src/controller/mpc/mpc.dat
/* MPC controller data */

data;

param HORIZON := 5;
param MODELS := 5;
param RTT_THRESHOLD := 33;
param SWITCHING_WEIGHT := 0;
param last_endToEnd_time_param := 33;

param model_accuracy :=
  1 20.2
  2 35.2
  3 45.1 
  4 50.1 
  5 51.1;

param network_time :
      1 2 3 4 5 :=
1     0.16 0.32 1.28 2.56 10.24
2     0.32 0.64 2.56 5.12 20.48	
3     0.53 1.07 4.27 8.53 34.13
4     0.2 0.4 1.6 3.2 12.8
5     0.16 0.32 1.28 2.56 10.24;

param model_time :=
  1 2
  2 4
  3 8
  4 10
  5 12;

end;
